29
1 1899 2310
2 1954 669
3 793 940
4 1171 1341
5 772 2329
6 1112 2300
7 781 1861
8 846 918
9 1460 1095
10 1725 608
11 597 1974
12 1643 618
13 522 1789
14 1890 2176
15 871 812
16 1121 2324
17 1688 2266
18 864 2147
19 446 2275
20 74 2381
21 1976 1145
22 632 930
23 952 2173
24 1077 827
25 125 2064
26 466 2041
27 1249 1537
28 1577 1039
29 87 2297
